c defined variables: 8 9 10 11 12 13 14 15 16 17 18 19 20 21 22 23 24 25 26 27 28 29 30 31 32 33 39 40 41 44 45 46 47 48 49 50 51 52 53 54 55 56 57 58 59 61 62 63 64 
p cnf 336 531
a 1 2 3 4 5 6 7 36 37 38 0
e 8 9 10 11 12 13 14 15 16 17 18 19 20 21 22 23 24 25 26 27 28 29 30 31 32 33 39 40 41 44 45 46 47 48 49 50 51 52 53 54 55 56 57 58 59 61 62 63 64 255 256 257 258 259 260 261 262 263 264 265 266 267 268 269 270 271 272 273 274 275 276 277 278 279 280 281 282 283 284 285 286 287 288 289 290 291 292 293 294 295 296 297 298 299 300 301 302 303 304 305 306 307 308 309 310 311 312 313 314 315 316 317 318 319 320 321 322 323 324 325 326 327 328 329 330 331 332 333 334 335 336 0
d 34 36 37 38 0
d 35 36 37 38 0
d 42 1 2 3 4 5 6 7 36 37 38 0
d 43 1 2 3 4 5 6 7 36 37 38 0
d 60 1 2 3 4 5 6 7 36 37 38 0
256 -8 0
-256 8 0
257 -9 0
-257 9 0
-258 -10 0
258 10 0
259 -11 0
-259 11 0
260 -12 0
-260 12 0
-261 -13 0
261 13 0
262 -14 0
-262 14 0
263 -15 0
-263 15 0
-264 -16 0
264 16 0
265 -17 0
-265 17 0
266 -18 0
-266 18 0
-267 -19 0
267 19 0
268 -20 0
-268 20 0
269 -21 0
-269 21 0
-270 -22 0
270 22 0
-271 -23 0
271 23 0
272 -24 0
-272 24 0
274 -25 0
-274 25 0
276 -26 0
-276 26 0
-278 -27 0
278 27 0
279 -28 0
-279 28 0
280 -29 0
-280 29 0
282 -30 0
-282 30 0
283 -31 0
-283 31 0
284 -32 0
-284 32 0
-288 -33 0
288 33 0
265 -39 0
-265 39 0
266 -40 0
-266 40 0
-289 -41 0
289 41 0
-290 -44 0
290 44 0
-271 -45 0
271 45 0
272 -46 0
-272 46 0
-46 -47 0
46 47 0
292 -48 0
-292 48 0
296 -49 0
-296 49 0
-298 -50 0
298 50 0
299 -51 0
-299 51 0
-255 -52 0
255 52 0
-255 -53 0
255 53 0
283 -54 0
-283 54 0
302 -55 0
-302 55 0
-304 -56 0
304 56 0
305 -57 0
-305 57 0
321 -58 0
-321 58 0
324 -59 0
-324 59 0
327 -61 0
-327 61 0
330 -62 0
-330 62 0
333 -63 0
-333 63 0
336 -64 0
-336 64 0
-8 1 0
-8 4 0
-1 -4 8 0
-9 -1 0
-9 -4 0
1 4 9 0
-8 10 0
-9 10 0
-10 8 9 0
-11 7 0
-11 10 0
-7 -10 11 0
-12 -7 0
-12 -10 0
7 10 12 0
-11 13 0
-12 13 0
-13 11 12 0
-14 4 0
-14 7 0
-4 -7 14 0
-15 1 0
-15 -13 0
-1 13 15 0
-14 16 0
-15 16 0
-16 14 15 0
-17 3 0
-17 6 0
-3 -6 17 0
-18 -3 0
-18 -6 0
3 6 18 0
-17 19 0
-18 19 0
-19 17 18 0
-20 16 0
-20 19 0
-16 -19 20 0
-21 -16 0
-21 -19 0
16 19 21 0
-20 22 0
-21 22 0
-22 20 21 0
-2 23 0
-5 23 0
-23 2 5 0
-24 2 0
-24 5 0
-2 -5 24 0
-25 3 0
-25 -22 0
-25 23 0
-3 22 -23 25 0
-26 6 0
-26 16 0
-26 23 0
-6 -16 -23 26 0
-24 27 0
-25 27 0
-26 27 0
-27 24 25 26 0
-28 -27 0
-28 23 0
27 -23 28 0
-29 3 0
-29 6 0
-29 -27 0
-3 -6 27 29 0
-30 -27 0
-30 -22 0
-30 16 0
27 22 -16 30 0
-31 2 0
-31 3 0
-31 5 0
-31 6 0
-2 -3 -5 -6 31 0
-32 2 0
-32 5 0
-32 -22 0
-32 16 0
-2 -5 22 -16 32 0
-28 33 0
-29 33 0
-30 33 0
-31 33 0
-32 33 0
-33 28 29 30 31 32 0
-39 3 0
-39 6 0
-3 -6 39 0
-40 -3 0
-40 -6 0
3 6 40 0
-39 41 0
-40 41 0
-41 39 40 0
-42 34 0
-42 41 0
-34 -41 42 0
-43 -34 0
-43 -41 0
34 41 43 0
-42 44 0
-43 44 0
-44 42 43 0
-2 45 0
-5 45 0
-45 2 5 0
-46 2 0
-46 5 0
-2 -5 46 0
-46 -47 0
46 47 0
-48 3 0
-48 -44 0
-48 45 0
-3 44 -45 48 0
-49 6 0
-49 34 0
-49 45 0
-6 -34 -45 49 0
-47 50 0
-48 50 0
-49 50 0
-50 47 48 49 0
-51 -50 0
-51 45 0
50 -45 51 0
-52 3 0
-52 6 0
-52 -50 0
-3 -6 50 52 0
-53 -50 0
-53 -44 0
-53 34 0
50 44 -34 53 0
-54 2 0
-54 3 0
-54 5 0
-54 6 0
-2 -3 -5 -6 54 0
-55 2 0
-55 5 0
-55 -44 0
-55 34 0
-2 -5 44 -34 55 0
-51 56 0
-52 56 0
-53 56 0
-54 56 0
-55 56 0
-56 51 52 53 54 55 0
-57 -27 50 0
-57 27 -50 0
57 -27 -50 0
57 27 50 0
-58 -33 56 0
-58 33 -56 0
58 -33 -56 0
58 33 56 0
-59 -22 44 0
-59 22 -44 0
59 -22 -44 0
59 22 44 0
-60 -13 35 0
-60 13 -35 0
60 -13 -35 0
60 13 35 0
-57 -58 -59 -60 61 0
-61 57 0
-61 58 0
-61 59 0
-61 60 0
-1 -36 -62 0
-1 36 62 0
1 -36 62 0
1 36 -62 0
-4 -37 -63 0
-4 37 63 0
4 -37 63 0
4 37 -63 0
-7 -38 -64 0
-7 38 64 0
7 -38 64 0
7 38 -64 0
62 63 64 61 0
255 0
1 -256 0
4 -256 0
-1 -4 256 0
-1 -257 0
-4 -257 0
1 4 257 0
-8 -258 0
-9 -258 0
8 9 258 0
7 -259 0
10 -259 0
-7 -10 259 0
-7 -260 0
-10 -260 0
7 10 260 0
-11 -261 0
-12 -261 0
11 12 261 0
4 -262 0
7 -262 0
-4 -7 262 0
1 -263 0
-13 -263 0
-1 13 263 0
-14 -264 0
-15 -264 0
14 15 264 0
3 -265 0
6 -265 0
-3 -6 265 0
-3 -266 0
-6 -266 0
3 6 266 0
-17 -267 0
-18 -267 0
17 18 267 0
16 -268 0
19 -268 0
-16 -19 268 0
-16 -269 0
-19 -269 0
16 19 269 0
-20 -270 0
-21 -270 0
20 21 270 0
-2 -271 0
-5 -271 0
2 5 271 0
2 -272 0
5 -272 0
-2 -5 272 0
3 -273 0
-22 -273 0
-3 22 273 0
23 -274 0
273 -274 0
-23 -273 274 0
6 -275 0
16 -275 0
-6 -16 275 0
23 -276 0
275 -276 0
-23 -275 276 0
-24 -277 0
-25 -277 0
24 25 277 0
-26 -278 0
277 -278 0
26 -277 278 0
23 -279 0
-27 -279 0
-23 27 279 0
-27 -280 0
265 -280 0
27 -265 280 0
16 -281 0
-22 -281 0
-16 22 281 0
-27 -282 0
281 -282 0
27 -281 282 0
265 -283 0
272 -283 0
-265 -272 283 0
272 -284 0
281 -284 0
-272 -281 284 0
-28 -285 0
-29 -285 0
28 29 285 0
-30 -286 0
-31 -286 0
30 31 286 0
-32 -287 0
286 -287 0
32 -286 287 0
285 -288 0
287 -288 0
-285 -287 288 0
-39 -289 0
-40 -289 0
39 40 289 0
-42 -290 0
-43 -290 0
42 43 290 0
3 -291 0
-44 -291 0
-3 44 291 0
45 -292 0
291 -292 0
-45 -291 292 0
41 -293 0
-42 -293 0
-41 42 293 0
6 -294 0
-43 -294 0
-6 43 294 0
45 -295 0
294 -295 0
-45 -294 295 0
-293 -296 0
295 -296 0
293 -295 296 0
-47 -297 0
-48 -297 0
47 48 297 0
-49 -298 0
297 -298 0
49 -297 298 0
45 -299 0
-50 -299 0
-45 50 299 0
-41 -300 0
-43 -300 0
41 43 300 0
-44 -301 0
300 -301 0
44 -300 301 0
272 -302 0
301 -302 0
-272 -301 302 0
-51 -303 0
-54 -303 0
51 54 303 0
-55 -304 0
303 -304 0
55 -303 304 0
27 -305 0
50 -305 0
-27 -50 305 0
50 -306 0
266 -306 0
-50 -266 306 0
33 -307 0
56 -307 0
-33 -56 307 0
272 -308 0
307 -308 0
-272 -307 308 0
-306 -309 0
308 -309 0
306 -308 309 0
-47 -310 0
-309 -310 0
47 309 310 0
-51 -311 0
-52 -311 0
51 52 311 0
-53 -312 0
311 -312 0
53 -311 312 0
50 -313 0
-312 -313 0
-50 312 313 0
-47 -314 0
51 -314 0
47 -51 314 0
-50 -315 0
-314 -315 0
50 314 315 0
-33 -316 0
-56 -316 0
33 56 316 0
-272 -317 0
316 -317 0
272 -316 317 0
47 -318 0
-317 -318 0
-47 317 318 0
-315 -319 0
-318 -319 0
315 318 319 0
-313 -320 0
319 -320 0
313 -319 320 0
-310 -321 0
320 -321 0
310 -320 321 0
22 -322 0
-44 -322 0
-22 44 322 0
-22 -323 0
44 -323 0
22 -44 323 0
-322 -324 0
-323 -324 0
322 323 324 0
57 -325 0
58 -325 0
-57 -58 325 0
59 -326 0
60 -326 0
-59 -60 326 0
325 -327 0
326 -327 0
-325 -326 327 0
-1 -328 0
-36 -328 0
1 36 328 0
1 -329 0
36 -329 0
-1 -36 329 0
-328 -330 0
-329 -330 0
328 329 330 0
-4 -331 0
-37 -331 0
4 37 331 0
4 -332 0
37 -332 0
-4 -37 332 0
-331 -333 0
-332 -333 0
331 332 333 0
-7 -334 0
-38 -334 0
7 38 334 0
7 -335 0
38 -335 0
-7 -38 335 0
-334 -336 0
-335 -336 0
334 335 336 0
